p cnf 14 27
-7 3 0
-7 1 0
-7 -4 0
7 -1 4 0
-8 4 0
-8 1 0
-8 -3 0
8 -1 3 0
-9 5 0
-9 2 0
-9 -6 0
9 -2 6 0
-10 5 0
-10 -1 0
10 1 0
-3 7 0
-4 8 0
-5 9 10 0
-6 0
1 -11 0
-1 11 0
1 12 0
-1 -12 0
2 -13 0
-2 13 0
2 14 0
-2 -14 0
